p cnf 8 27
8 1 4 -2 0
4 0
3 0
-2 0
8 5 -2 0
-5 6 -1 0
1 -6 3 -7 0
1 2 7 0
-8 -6 3 0
8 -7 -6 6 0
3 5 0
8 1 -6 6 0
-5 -1 7 0
-8 0
-6 3 -3 0
6 0
-5 -3 0
1 -4 7 0
1 0
8 -5 0
-8 -7 3 -1 0
1 6 7 0
1 5 -3 6 0
1 0
-1 7 0
-4 -3 0
2 0
